(set-logic HORN)
(set-info :source |
    Benchmark: C_VC
    Output by Princess (http://www.philipp.ruemmer.org/princess.shtml)
|)
(set-info :status unknown)
(declare-fun inv_main20 (Int Int Int Int Int) Bool)
(declare-fun inv_main21 (Int Int Int Int Int) Bool)
(declare-fun inv_main6 (Int Int Int Int Int) Bool)
(assert (forall ((var0 Int)) (forall ((var1 Int)) (forall ((var2 Int)) (forall ((var3 Int)) (forall ((var4 Int)) (inv_main6 var0 var1 var4 var2 var3 ) ) ) ) ) ) )
(assert (forall ((var0 Int)) (forall ((var1 Int)) (forall ((var2 Int)) (forall ((var3 Int)) (forall ((var4 Int)) (or (not (and (inv_main20 var2 var3 var0 var1 var4 ) (not (<= 0 (+ (+ var4 (* (- 1) var2 ) ) (- 1) ) ) ) ) ) (inv_main21 var2 var3 var0 var1 var4 ) ) ) ) ) ) ) )
(assert (forall ((var0 Int)) (forall ((var1 Int)) (forall ((var2 Int)) (forall ((var3 Int)) (forall ((var4 Int)) (or (not (and (inv_main6 var2 var3 var0 var1 var4 ) (and (<= 0 (+ var4 (* (- 1) var0 ) ) ) (and (<= 0 var0 ) (and (<= 0 (+ 100 (* (- 1) var4 ) ) ) (<= 0 var4 ) ) ) ) ) ) (inv_main20 var0 0 var0 var1 var4 ) ) ) ) ) ) ) )
(assert (forall ((var0 Int)) (forall ((var1 Int)) (forall ((var2 Int)) (forall ((var3 Int)) (forall ((var4 Int)) (or (not (and (inv_main20 var2 var3 var0 var1 var4 ) (<= 0 (+ (+ var4 (* (- 1) var2 ) ) (- 1) ) ) ) ) (inv_main20 (+ var2 1 ) (+ var3 1 ) var0 var1 var4 ) ) ) ) ) ) ) )
(assert (forall ((var0 Int)) (forall ((var1 Int)) (forall ((var2 Int)) (forall ((var3 Int)) (forall ((var4 Int)) (not (and (inv_main21 var2 var3 var0 var1 var4 ) (not (<= 0 (+ 100 (* (- 1) var3 ) ) ) ) ) ) ) ) ) ) ) )
(check-sat)
